Copyright (C) 2013-2015, Filipe Brandao
Build (method = -2)
  #dp: 85106
  Step-3' Graph: 478 vertices and 29185 arcs (0.21s)
  Step-4' Graph: 412 vertices and 29053 arcs (0.21s)
  #V4/#V3 = 0.86
  #A4/#A3 = 1.00
Ready! (0.21s)
Optimize a model with 827 rows, 29054 columns and 86343 nonzeros
Presolve removed 212 rows and 252 columns
Presolve time: 0.16s
Presolved: 615 rows, 28802 columns, 83982 nonzeros
Variable types: 0 continuous, 28802 integer (15046 binary)
Found heuristic solution: objective 649.0000000
Optimize a model with 615 rows, 28802 columns and 83982 nonzeros
Presolved: 615 rows, 28802 columns, 83982 nonzeros

Root barrier log...

Ordering time: 0.01s

Barrier statistics:
 AA' NZ     : 4.344e+04
 Factor NZ  : 8.948e+04 (roughly 13 MBytes of memory)
 Factor Ops : 1.893e+07 (less than 1 second per iteration)
 Threads    : 1

                  Objective                Residual
Iter       Primal          Dual         Primal    Dual     Compl     Time
   0   3.52760336e+04 -6.06018859e+05  8.54e+05 1.93e-01  9.04e+01     0s
   1   9.86349727e+03 -1.23613146e+05  1.02e+05 7.77e-16  1.17e+01     0s
   2   2.46330725e+03 -2.96737483e+04  1.08e+04 1.22e-15  1.48e+00     0s
   3   1.43782912e+03 -8.79090173e+03  1.18e+03 2.34e-04  2.64e-01     0s
   4   7.71667634e+02 -1.46952264e+03  1.54e+02 6.94e-16  4.80e-02     0s
   5   7.37951863e+02 -9.89561732e+02  1.30e+02 8.05e-16  3.67e-02     0s
   6   7.01732530e+02 -5.92646076e+02  1.14e+02 6.25e-16  2.78e-02     0s
   7   5.40082476e+02 -1.18184103e+02  3.72e+01 5.59e-16  1.29e-02     0s
   8   4.88457476e+02  4.69178755e+01  1.93e+01 5.50e-16  8.31e-03     0s
   9   4.68915595e+02  1.25012739e+02  1.08e+01 7.44e-16  6.29e-03     0s
  10   4.56778377e+02  1.95371365e+02  7.79e+00 7.13e-16  4.74e-03     0s
  11   4.44324006e+02  2.16263455e+02  5.87e+00 7.85e-16  4.11e-03     0s
  12   4.35992191e+02  2.29062157e+02  4.82e+00 7.17e-16  3.71e-03     0s
  13   4.14015432e+02  2.70111500e+02  2.75e+00 7.36e-16  2.56e-03     0s
  14   3.96915295e+02  3.25039006e+02  1.31e+00 7.73e-16  1.28e-03     0s
  15   3.89019388e+02  3.69443565e+02  6.91e-01 6.66e-16  3.58e-04     0s
  16   3.82171474e+02  3.78938435e+02  1.01e-01 6.66e-16  5.90e-05     0s
  17   3.81368970e+02  3.80455662e+02  4.14e-02 6.66e-16  1.69e-05     0s
  18   3.81185738e+02  3.80682047e+02  2.16e-02 6.68e-16  9.22e-06     0s
  19   3.81035027e+02  3.80712010e+02  8.98e-03 7.23e-16  5.80e-06     0s
  20   3.80903061e+02  3.80777240e+02  2.21e-03 5.83e-16  2.23e-06     0s
  21   3.80833867e+02  3.80831244e+02  3.86e-06 5.96e-16  4.55e-08     0s
  22   3.80833334e+02  3.80833331e+02  1.77e-09 6.11e-16  4.55e-11     0s
  23   3.80833333e+02  3.80833333e+02  9.97e-10 5.49e-16  4.55e-14     0s

Barrier solved model in 23 iterations and 0.32 seconds
Optimal objective 3.80833333e+02


Root relaxation: objective 3.808333e+02, 4790 iterations, 0.34 seconds

    Nodes    |    Current Node    |     Objective Bounds      |     Work
 Expl Unexpl |  Obj  Depth IntInf | Incumbent    BestBd   Gap | It/Node Time

     0     0  380.83333    0   13  649.00000  380.83333  41.3%     -    0s
H    0     0                     384.0000000  380.83333  0.82%     -    0s
H    0     0                     383.0000000  380.83333  0.57%     -    0s
H    0     0                     382.0000000  380.83333  0.31%     -    1s
*    0     0               0     381.0000000  381.00000  0.00%     -    1s

Cutting planes:
  Gomory: 2
  Zero half: 4

Explored 0 nodes (5735 simplex iterations) in 1.37 seconds
Thread count was 1 (of 4 available processors)

Optimal solution found (tolerance 0.00e+00)
Best objective 3.810000000000e+02, best bound 3.810000000000e+02, gap 0.0%
Preprocessing time: 0.26 seconds
Gurobi run time: 1.37 seconds
Total run time: 1.63 seconds
Objective: 381
Solution:
1 x [i=1, i=415]
2 x [i=2, i=414]
1 x [i=2, i=415]
1 x [i=3]
1 x [i=4, i=413]
3 x [i=5, i=411]
2 x [i=6, i=409]
1 x [i=7, i=411]
2 x [i=8, i=410]
1 x [i=9, i=408]
1 x [i=10, i=406]
1 x [i=11, i=406]
1 x [i=12, i=404]
1 x [i=13, i=407]
2 x [i=14, i=403]
2 x [i=15, i=404]
3 x [i=16]
1 x [i=17, i=401]
2 x [i=18, i=405]
3 x [i=19]
3 x [i=20, i=399]
1 x [i=21, i=397]
3 x [i=22, i=400]
1 x [i=23, i=396]
1 x [i=23, i=398]
1 x [i=24, i=393]
2 x [i=25, i=394]
2 x [i=26, i=391]
2 x [i=27, i=395]
1 x [i=28, i=388]
2 x [i=29, i=387]
1 x [i=30, i=385]
1 x [i=30, i=386]
3 x [i=31, i=386]
1 x [i=32, i=381]
2 x [i=33, i=383]
1 x [i=34, i=380]
3 x [i=35, i=389]
1 x [i=36, i=382]
3 x [i=37, i=390]
1 x [i=38, i=376]
2 x [i=38, i=379]
1 x [i=39, i=375]
1 x [i=40, i=377]
2 x [i=41, i=374]
1 x [i=42, i=371]
1 x [i=43, i=369]
2 x [i=44, i=370]
1 x [i=45, i=368]
1 x [i=45, i=372]
5 x [i=46]
3 x [i=47, i=366]
2 x [i=48, i=365]
1 x [i=49, i=364]
2 x [i=50, i=363]
1 x [i=51, i=378]
1 x [i=52, i=361]
3 x [i=53, i=362]
3 x [i=54, i=373]
1 x [i=55, i=358]
1 x [i=56, i=359]
2 x [i=57, i=357]
1 x [i=57, i=360]
1 x [i=58, i=354]
1 x [i=59, i=353]
1 x [i=60, i=354]
1 x [i=61, i=355]
2 x [i=62, i=352]
1 x [i=62, i=355]
2 x [i=63, i=351]
1 x [i=64, i=356]
1 x [i=65, i=384]
1 x [i=66, i=392]
1 x [i=67, i=402]
4 x [i=68, i=350]
2 x [i=69, i=347]
2 x [i=70, i=345]
1 x [i=71, i=412]
3 x [i=72, i=346]
3 x [i=73, i=349]
2 x [i=74, i=348]
4 x [i=75, i=367]
2 x [i=76, i=341]
1 x [i=77, i=340]
1 x [i=78, i=338]
1 x [i=79, i=336]
2 x [i=79, i=337]
2 x [i=80, i=335]
1 x [i=81, i=335]
3 x [i=82, i=334]
1 x [i=82, i=339]
1 x [i=83, i=342]
1 x [i=84, i=333]
1 x [i=85, i=332]
1 x [i=86, i=330]
1 x [i=86, i=331]
1 x [i=86, i=343]
1 x [i=87, i=329]
1 x [i=87, i=344]
2 x [i=88, i=328]
1 x [i=89, i=328]
1 x [i=90, i=327]
1 x [i=91, i=325]
1 x [i=92, i=324]
2 x [i=93, i=322]
1 x [i=94, i=321]
1 x [i=95, i=318]
2 x [i=96, i=317]
1 x [i=97, i=316]
3 x [i=97, i=320]
2 x [i=98, i=314]
1 x [i=99, i=324]
1 x [i=100, i=312]
3 x [i=101, i=313]
3 x [i=102, i=323]
1 x [i=103, i=311]
1 x [i=104, i=327]
1 x [i=105, i=310]
1 x [i=106, i=309]
2 x [i=106, i=315]
1 x [i=107, i=307]
1 x [i=108, i=307]
1 x [i=109, i=305]
1 x [i=110, i=307]
1 x [i=111, i=303]
3 x [i=111, i=304]
1 x [i=112, i=302]
1 x [i=113, i=301]
1 x [i=114, i=301]
1 x [i=115, i=303]
3 x [i=116, i=306]
1 x [i=117, i=298]
1 x [i=118, i=297]
1 x [i=119, i=295]
2 x [i=120, i=295]
1 x [i=121, i=293]
2 x [i=122, i=300]
2 x [i=123, i=290]
1 x [i=124, i=288]
2 x [i=125, i=287]
1 x [i=125, i=294]
1 x [i=126, i=286]
3 x [i=126, i=289]
1 x [i=127, i=285]
1 x [i=128, i=284]
1 x [i=129, i=282]
2 x [i=130, i=280]
3 x [i=130, i=292]
2 x [i=131, i=281]
1 x [i=132, i=279]
1 x [i=133, i=278]
1 x [i=134, i=299]
2 x [i=135, i=283]
1 x [i=136, i=276]
3 x [i=137, i=275]
1 x [i=137, i=291]
2 x [i=138, i=276]
1 x [i=139, i=274]
1 x [i=139, i=319]
1 x [i=140, i=296]
1 x [i=141, i=273]
1 x [i=141, i=274]
1 x [i=141, i=326]
2 x [i=142, i=270]
1 x [i=142, i=271]
1 x [i=143, i=308]
2 x [i=144, i=272]
2 x [i=145, i=269]
1 x [i=145, i=296]
1 x [i=146, i=311]
1 x [i=147, i=268]
1 x [i=148, i=267]
1 x [i=149, i=267]
1 x [i=150, i=266]
1 x [i=151, i=265]
1 x [i=152, i=264]
1 x [i=152, i=266]
2 x [i=153, i=262]
1 x [i=154, i=262]
3 x [i=155, i=261]
2 x [i=156, i=260]
2 x [i=157, i=260]
2 x [i=158, i=259]
2 x [i=159, i=259]
1 x [i=159, i=260]
1 x [i=160, i=258]
2 x [i=160, i=266]
2 x [i=161, i=256]
1 x [i=162, i=257]
2 x [i=163, i=253]
1 x [i=164, i=255]
1 x [i=165, i=250]
1 x [i=165, i=251]
2 x [i=166, i=253]
1 x [i=167, i=246]
1 x [i=168, i=254]
2 x [i=169, i=247]
1 x [i=170, i=245]
2 x [i=171, i=244]
1 x [i=172, i=241]
1 x [i=173, i=241]
3 x [i=174, i=240]
3 x [i=175, i=236]
1 x [i=176, i=237]
1 x [i=177, i=242]
1 x [i=178, i=239]
1 x [i=179, i=232]
2 x [i=180, i=231]
1 x [i=180, i=248]
1 x [i=181, i=248]
2 x [i=182, i=235]
1 x [i=182, i=239]
2 x [i=183, i=238]
1 x [i=184, i=230]
1 x [i=185, i=229]
1 x [i=186, i=232]
2 x [i=186, i=257]
3 x [i=187, i=233]
1 x [i=188, i=229]
1 x [i=189, i=228]
1 x [i=189, i=229]
1 x [i=190, i=237]
1 x [i=191, i=226]
2 x [i=191, i=230]
1 x [i=192, i=238]
1 x [i=193, i=225]
1 x [i=193, i=252]
1 x [i=194, i=224]
1 x [i=195, i=219]
1 x [i=195, i=241]
1 x [i=196, i=221]
1 x [i=197, i=251]
2 x [i=198, i=219]
2 x [i=198, i=234]
1 x [i=199, i=218]
1 x [i=199, i=224]
1 x [i=200, i=216]
1 x [i=201, i=215]
1 x [i=201, i=216]
2 x [i=202, i=213]
1 x [i=203, i=214]
1 x [i=204, i=222]
2 x [i=205, i=212]
2 x [i=206, i=210]
2 x [i=206, i=211]
3 x [i=207, i=209]
1 x [i=208, i=213]
2 x [i=217, i=243]
1 x [i=220, i=225]
1 x [i=223, i=250]
1 x [i=225, i=227]
1 x [i=226, i=249]
1 x [i=263, i=277]
